min: 1 x1 + 1 x2 + 1 x3 + 1 x4 + 1 x5 + 1 x6 + 1 x7 + 1 x8 + 1 x9 + 1 x10 + 1 x11 + 1 x12 + 1 x13 + 1 x14 + 1 x15 + 1 x16 + 1 x17 + 1 x18 + 1 x19 + 1 x20 + 1 x21 + 1 x22 + 1 x23 + 1 x24 + 1 x25 + 1 x26 + 1 x27 + 1 x28 + 1 x29 + 1 x30 + 1 x31 + 1 x32 + 1 x33 + 1 x34 + 1 x35 + 1 x36 + 1 x37 + 1 x38 + 1 x39 + 1 x40 + 1 x41 + 1 x42 + 1 x43 + 1 x44 + 1 x45;

r1: x9 + x4 + x43 + x35 + x1 + x38 + x13 + x39 >= 1;
r2: x22 + x33 + x7 + x13 >= 1;
r3: x44 + x4 + x19 + x35 + x8 + x23 + x20 + x38 >= 1;
r4: x33 + x3 + x23 + x41 >= 1;
r5: x45 + x26 + x12 >= 1;
r6: x34 + x36 + x43 + x7 + x15 + x30 >= 1;
r7: x1 + x5 + x26 >= 1;
r8: x44 + x18 + x30 + x42 + x35 + x29 + x3 + x2 >= 1;
r9: x19 + x29 + x3 + x5 + x34 + x33 + x42 >= 1;
r10: x16 + x22 + x2 + x32 + x11 + x43 + x15 + x5 >= 1;
r11: x45 + x41 + x43 + x3 >= 1;
r12: x9 >= 1;
r13: x35 + x33 + x11 + x3 + x30 + x25 + x18 >= 1;
r14: x4 + x29 + x7 + x26 + x45 + x18 + x42 >= 1;
r15: x20 + x30 + x9 + x39 + x37 + x36 + x22 + x10 >= 1;
r16: x9 >= 1;
r17: x18 + x16 + x35 + x32 >= 1;
r18: x36 + x29 + x7 + x43 + x33 + x41 >= 1;
r19: x4 + x24 + x10 + x3 + x36 >= 1;
r20: x3 + x35 + x14 + x21 + x25 + x16 + x18 + x1 >= 1;
r21: x9 + x22 + x15 + x23 >= 1;
r22: x19 + x36 + x22 + x32 + x27 + x21 >= 1;
r23: x21 >= 1;
r24: x15 + x20 + x11 + x3 + x40 + x42 + x18 + x36 >= 1;
r25: x15 + x24 + x45 + x13 >= 1;
r26: x1 + x6 + x18 + x3 + x4 >= 1;
r27: x8 + x42 + x16 + x21 + x33 + x15 + x28 >= 1;
r28: x32 + x19 + x39 + x33 >= 1;
r29: x35 >= 1;
r30: x45 + x7 + x34 >= 1;
r31: x18 + x41 >= 1;
r32: x8 >= 1;
r33: x38 + x43 + x20 + x10 + x42 + x13 + x37 + x35 >= 1;
r34: x11 + x36 + x19 + x7 + x2 + x3 + x14 >= 1;
r35: x38 + x11 + x43 + x19 + x14 >= 1;
r36: x37 + x5 + x12 + x22 >= 1;
r37: x23 + x14 + x19 + x15 + x44 + x16 + x45 + x30 >= 1;
r38: x35 >= 1;
r39: x14 >= 1;
r40: x12 + x44 + x16 + x15 + x9 >= 1;
r41: x44 >= 1;
r42: x25 + x42 + x33 >= 1;
r43: x37 + x11 + x21 + x9 + x41 + x12 + x27 >= 1;
r44: x32 + x20 + x31 >= 1;
r45: x6 + x14 + x17 + x26 >= 1;
r46: x37 + x40 + x21 + x10 + x42 + x41 >= 1;
r47: x31 + x32 + x33 >= 1;
r48: x38 + x23 + x43 + x11 + x28 >= 1;
r49: x27 + x17 + x34 + x42 + x28 + x18 + x37 >= 1;
r50: x15 >= 1;
r51: x16 + x7 + x18 >= 1;
r52: x44 + x16 + x3 + x35 >= 1;
r53: x24 + x33 + x2 >= 1;
r54: x30 + x14 + x35 + x45 + x18 + x42 + x2 + x16 >= 1;
r55: x9 >= 1;
r56: x19 + x45 + x17 + x41 + x6 + x12 >= 1;
r57: x33 + x9 + x25 + x29 + x6 + x20 >= 1;
r58: x27 + x14 + x23 + x45 + x1 + x33 + x39 + x34 >= 1;
r59: x34 + x4 + x2 >= 1;
r60: x6 + x7 + x37 + x43 + x42 + x30 + x25 >= 1;
r61: x11 + x25 + x34 + x14 >= 1;
r62: x21 + x35 + x14 + x19 + x30 + x18 + x5 + x40 >= 1;
r63: x3 + x43 + x19 >= 1;
r64: x36 + x23 + x1 >= 1;
r65: x30 + x7 + x28 + x35 + x3 + x25 >= 1;
r66: x18 + x12 + x23 + x13 + x9 + x5 + x27 + x22 >= 1;
r67: x28 + x24 + x10 >= 1;
r68: x10 + x12 + x39 >= 1;
r69: x39 >= 1;
r70: x4 + x25 >= 1;
r71: x42 + x7 + x4 + x18 + x38 >= 1;
r72: x9 + x18 + x43 + x29 >= 1;
r73: x44 + x24 + x32 + x26 + x13 + x35 >= 1;
r74: x31 + x9 + x38 + x25 >= 1;
r75: x16 + x39 >= 1;
r76: x36 + x11 >= 1;
r77: x21 >= 1;
r78: x37 + x13 + x10 >= 1;
r79: x13 + x28 + x23 + x41 >= 1;
r80: x19 + x34 + x2 + x15 + x26 >= 1;
r81: x32 + x30 + x31 + x16 + x36 + x3 + x2 + x23 >= 1;
r82: x19 + x13 + x32 + x37 >= 1;
r83: x19 + x33 + x32 + x25 + x18 + x8 >= 1;
r84: x15 + x1 + x10 + x9 + x11 + x7 + x12 >= 1;
r85: x24 + x19 + x16 + x39 + x27 + x11 >= 1;
r86: x34 + x27 + x38 + x30 >= 1;
r87: x33 + x10 >= 1;
r88: x21 + x44 >= 1;
r89: x7 + x34 + x23 + x32 >= 1;
r90: x28 >= 1;
r91: x13 + x19 + x11 + x43 + x10 + x24 + x27 + x6 >= 1;
r92: x1 + x3 + x43 + x45 >= 1;
r93: x26 + x13 >= 1;
r94: x16 + x10 + x14 + x6 >= 1;
r95: x16 + x9 + x3 + x34 + x17 + x23 + x36 + x25 >= 1;
r96: x34 + x28 + x30 + x43 + x10 + x41 + x22 >= 1;
r97: x7 + x24 + x29 + x23 + x5 + x21 + x8 + x11 >= 1;
r98: x33 + x12 + x9 + x13 + x20 >= 1;
r99: x16 + x36 + x38 + x14 >= 1;
r100: x10 + x25 >= 1;
r101: x12 + x19 >= 1;
r102: x26 + x3 + x15 >= 1;
r103: x44 + x5 + x16 >= 1;
r104: x19 >= 1;
r105: x5 + x44 + x7 + x43 + x39 + x40 + x38 >= 1;
r106: x12 + x38 + x43 >= 1;
r107: x45 + x35 + x28 + x33 + x25 + x30 >= 1;
r108: x24 + x4 + x6 + x20 + x1 + x43 >= 1;
r109: x14 + x21 >= 1;
r110: x25 + x29 + x23 + x8 + x21 + x5 + x19 + x17 >= 1;
r111: x5 + x26 + x27 + x22 + x41 + x31 + x36 + x34 >= 1;
r112: x14 >= 1;
r113: x16 + x4 + x8 + x45 + x24 + x34 + x32 + x33 >= 1;
r114: x36 + x15 + x10 + x37 + x3 + x23 + x17 >= 1;
r115: x30 + x32 + x13 + x2 + x5 + x4 + x3 + x10 >= 1;
r116: x26 + x20 + x39 >= 1;
r117: x1 + x20 + x8 + x31 + x15 + x28 >= 1;
r118: x26 + x3 + x28 + x15 + x39 + x41 + x31 + x7 >= 1;
r119: x19 + x33 >= 1;
r120: x3 + x20 + x4 + x37 + x11 >= 1;
r121: x27 + x41 + x20 + x37 >= 1;
r122: x21 + x19 + x34 + x8 + x42 + x43 + x31 + x39 >= 1;
r123: x10 >= 1;
r124: x7 + x30 + x44 + x24 + x27 + x33 + x14 >= 1;
r125: x21 + x28 >= 1;
r126: x13 + x34 >= 1;
r127: x4 >= 1;
r128: x14 + x13 + x16 >= 1;
r129: x37 + x1 + x16 >= 1;
r130: x12 >= 1;
r131: x32 + x30 + x33 >= 1;
r132: x20 + x32 + x41 + x11 + x17 >= 1;
r133: x19 >= 1;
r134: x41 + x12 + x26 + x22 + x13 + x21 >= 1;
r135: x21 + x7 + x32 + x35 >= 1;
r136: x41 + x14 + x2 + x12 + x32 + x40 + x22 + x36 >= 1;
r137: x12 + x45 >= 1;
r138: x14 >= 1;
r139: x10 + x1 + x12 >= 1;
r140: x35 + x9 + x19 >= 1;
r141: x26 + x37 + x35 >= 1;
r142: x35 + x31 + x7 + x15 + x3 + x30 + x32 >= 1;
r143: x1 + x41 + x33 + x28 + x19 + x7 >= 1;
r144: x26 >= 1;
r145: x35 + x15 + x33 + x43 >= 1;
r146: x17 >= 1;
r147: x30 + x7 >= 1;
r148: x16 + x39 + x7 >= 1;
r149: x21 + x24 + x39 + x33 + x15 + x45 + x35 >= 1;
r150: x30 + x36 >= 1;
r151: x38 + x33 + x23 + x5 + x37 >= 1;
r152: x21 + x43 + x41 + x39 + x26 + x17 + x38 + x34 >= 1;
r153: x38 + x18 + x15 + x10 >= 1;
r154: x11 + x30 + x1 + x20 + x21 + x43 >= 1;
r155: x7 + x1 + x41 + x37 + x31 + x28 >= 1;
r156: x43 + x3 + x34 + x32 >= 1;
r157: x45 + x44 + x14 + x5 >= 1;
r158: x7 >= 1;
r159: x10 + x32 >= 1;
r160: x30 + x37 + x10 + x13 >= 1;
r161: x29 + x11 >= 1;
r162: x6 + x33 + x45 + x10 + x34 >= 1;
r163: x28 + x9 + x7 + x29 + x16 + x36 >= 1;
r164: x22 >= 1;
r165: x9 + x8 + x31 >= 1;
r166: x23 + x35 >= 1;
r167: x11 + x6 + x4 + x34 >= 1;
r168: x11 + x42 + x25 + x28 + x31 + x41 + x29 + x27 >= 1;
r169: x28 >= 1;
r170: x18 >= 1;
r171: x6 >= 1;
r172: x5 + x43 + x15 >= 1;
r173: x16 >= 1;
r174: x43 + x11 + x23 + x29 + x27 >= 1;
r175: x37 + x34 + x26 + x19 >= 1;
r176: x30 + x27 + x10 + x5 + x22 + x33 >= 1;
r177: x18 + x39 + x23 + x34 + x43 + x41 + x6 >= 1;
r178: x25 + x44 >= 1;
r179: x33 + x15 + x22 + x2 >= 1;
r180: x37 + x31 >= 1;
r181: x20 + x34 + x31 + x18 + x9 + x19 + x1 >= 1;
r182: x22 + x37 + x36 + x33 + x16 + x32 >= 1;
r183: x42 >= 1;
r184: x3 + x19 + x18 + x42 + x11 + x12 + x24 >= 1;
r185: x19 + x22 >= 1;
r186: x39 + x37 + x22 >= 1;
r187: x43 + x7 + x24 + x10 + x25 >= 1;
r188: x40 + x43 + x29 + x13 + x32 + x7 + x42 >= 1;
r189: x35 >= 1;
r190: x29 + x40 + x31 + x22 + x2 + x10 + x42 >= 1;
r191: x14 >= 1;
r192: x17 + x16 >= 1;
r193: x15 + x12 + x26 + x44 + x10 + x22 + x34 + x35 >= 1;
r194: x45 + x20 + x29 + x5 >= 1;
r195: x31 + x43 + x11 + x15 + x5 >= 1;
r196: x21 >= 1;
r197: x15 + x17 >= 1;
r198: x40 + x36 + x14 + x30 >= 1;
r199: x2 >= 1;
r200: x4 + x5 + x23 + x12 + x27 >= 1;
r201: x26 + x39 + x30 >= 1;
r202: x19 + x32 + x26 + x20 + x44 + x23 + x5 >= 1;
r203: x30 + x43 + x7 + x22 + x15 >= 1;
r204: x13 >= 1;
r205: x22 + x32 + x24 + x44 >= 1;
r206: x3 >= 1;
r207: x26 + x13 + x33 + x34 + x20 + x29 + x43 + x10 >= 1;
r208: x26 >= 1;
r209: x36 + x12 + x20 + x18 >= 1;
r210: x43 + x13 + x23 >= 1;
r211: x39 + x45 + x21 >= 1;
r212: x21 + x8 >= 1;
r213: x41 >= 1;
r214: x26 + x18 + x22 + x13 + x12 + x45 + x1 + x5 >= 1;
r215: x34 + x6 + x3 + x23 + x24 >= 1;
r216: x1 + x10 >= 1;
r217: x20 >= 1;
r218: x19 + x10 + x6 + x30 + x11 >= 1;
r219: x22 + x27 + x8 + x44 + x30 >= 1;
r220: x28 >= 1;
r221: x18 + x8 + x20 + x23 + x26 >= 1;
r222: x12 + x20 + x33 + x43 >= 1;
r223: x41 + x16 + x31 + x21 + x38 + x23 >= 1;
r224: x33 + x8 + x25 + x1 + x4 + x13 >= 1;
r225: x23 + x12 + x1 + x18 + x31 + x34 + x19 >= 1;
r226: x30 + x37 + x45 + x6 + x7 + x28 >= 1;
r227: x31 + x25 + x14 + x9 + x1 + x23 >= 1;
r228: x40 + x14 + x21 + x28 + x36 + x12 + x17 >= 1;
r229: x35 + x33 + x10 + x36 + x15 >= 1;
r230: x34 + x27 + x36 + x4 + x13 >= 1;
r231: x33 + x16 + x38 + x39 + x44 + x40 + x22 + x36 >= 1;
r232: x37 + x36 + x26 + x19 + x44 >= 1;
r233: x7 + x12 + x34 + x30 + x33 + x24 >= 1;
r234: x17 + x24 + x42 + x22 + x37 >= 1;
r235: x32 + x3 >= 1;
r236: x34 >= 1;
r237: x18 + x8 >= 1;
r238: x2 + x20 + x37 >= 1;
r239: x7 + x33 + x44 + x19 + x42 + x6 >= 1;
r240: x37 + x4 + x29 + x11 >= 1;
r241: x5 + x31 + x17 + x36 >= 1;
r242: x10 + x36 + x25 + x3 + x20 + x43 + x44 + x26 >= 1;
r243: x44 + x9 + x24 + x31 + x14 >= 1;
r244: x14 + x21 + x25 + x42 >= 1;
r245: x44 + x28 + x26 + x9 + x20 + x41 + x39 + x32 >= 1;
r246: x4 + x21 + x5 + x27 >= 1;
r247: x11 + x16 + x39 + x31 + x26 >= 1;
r248: x39 + x24 >= 1;
r249: x16 + x38 + x10 + x17 + x11 + x6 + x9 + x19 >= 1;
r250: x18 + x20 + x39 + x41 + x44 + x36 + x7 + x24 >= 1;
r251: x36 + x29 + x23 + x1 + x18 + x4 + x25 >= 1;
r252: x32 >= 1;
r253: x24 + x35 + x25 + x8 + x7 + x12 + x34 >= 1;
r254: x24 + x35 + x6 + x2 + x12 >= 1;
r255: x11 + x2 >= 1;
r256: x33 + x39 + x13 + x24 + x12 + x8 >= 1;
r257: x23 + x27 + x36 + x28 + x32 + x12 + x24 + x6 >= 1;
r258: x14 + x18 + x29 >= 1;
r259: x15 + x8 + x7 + x37 >= 1;
r260: x32 + x27 + x22 + x25 + x17 + x10 >= 1;
r261: x18 + x44 + x6 + x34 >= 1;
r262: x19 + x13 + x15 + x42 >= 1;
r263: x20 + x6 + x7 + x17 + x34 + x9 >= 1;
r264: x21 + x32 >= 1;
r265: x17 >= 1;
r266: x23 + x39 + x38 + x10 >= 1;
r267: x36 + x7 >= 1;
r268: x35 + x7 + x20 >= 1;
r269: x3 + x17 + x32 + x36 + x8 + x42 >= 1;
r270: x34 + x20 + x11 + x36 + x3 + x16 + x23 + x33 >= 1;
r271: x35 + x12 + x40 >= 1;
r272: x17 + x34 + x44 + x32 + x5 + x15 >= 1;
r273: x27 + x40 + x13 + x6 >= 1;
r274: x44 + x45 + x9 + x29 + x22 + x19 + x42 + x23 >= 1;
r275: x7 + x13 + x42 + x25 + x4 + x40 + x9 + x22 >= 1;
r276: x45 + x22 + x44 + x30 + x13 >= 1;
r277: x21 + x29 + x2 + x41 + x33 + x19 >= 1;
r278: x22 + x44 + x45 + x5 + x40 >= 1;
r279: x45 + x44 + x27 + x18 + x13 >= 1;
r280: x28 + x29 >= 1;
r281: x32 + x42 + x36 + x41 + x8 >= 1;
r282: x24 >= 1;
r283: x10 >= 1;
r284: x2 + x44 + x43 >= 1;
r285: x8 + x18 + x40 + x15 + x11 + x42 + x39 >= 1;
r286: x13 + x33 + x1 + x36 + x24 + x7 >= 1;
r287: x7 + x39 + x19 + x30 + x9 + x6 >= 1;
r288: x21 + x20 + x23 + x39 + x4 >= 1;
r289: x32 + x34 + x19 + x23 + x2 + x21 + x6 >= 1;
r290: x14 >= 1;
r291: x13 + x37 + x2 + x14 + x6 + x26 + x38 >= 1;
r292: x42 + x20 + x18 + x23 >= 1;
r293: x24 + x2 + x42 + x35 + x33 + x40 + x20 + x43 >= 1;
r294: x13 + x15 + x32 + x17 + x43 >= 1;
r295: x24 >= 1;
r296: x17 + x28 + x32 + x29 + x43 + x37 + x34 >= 1;
r297: x20 + x36 >= 1;
r298: x29 + x26 >= 1;
r299: x27 + x31 + x23 + x40 + x29 >= 1;
r300: x31 + x4 + x12 + x29 + x16 + x28 >= 1;
r301: x26 >= 1;
r302: x4 + x23 + x30 + x37 + x14 + x19 + x8 + x31 >= 1;
r303: x21 >= 1;
r304: x5 >= 1;
r305: x16 >= 1;
r306: x43 + x28 + x37 + x39 >= 1;
r307: x31 + x20 + x38 + x35 + x22 + x36 >= 1;
r308: x29 + x17 + x43 + x37 + x14 + x3 + x26 >= 1;
r309: x17 + x39 + x28 + x10 >= 1;
r310: x28 >= 1;
r311: x3 >= 1;
r312: x3 + x19 + x18 + x29 + x27 + x26 + x15 + x12 >= 1;
r313: x42 + x20 + x1 + x30 + x29 + x39 + x21 >= 1;
r314: x13 >= 1;
r315: x7 + x4 + x38 + x9 + x17 + x12 + x43 + x35 >= 1;
r316: x30 + x21 + x29 + x34 + x37 + x15 >= 1;
r317: x19 + x14 >= 1;
r318: x1 + x22 + x4 + x40 >= 1;
r319: x37 + x26 >= 1;
r320: x9 + x25 >= 1;
r321: x1 + x21 + x12 + x8 + x14 + x7 + x28 + x34 >= 1;
r322: x34 + x40 + x38 + x33 + x41 >= 1;
r323: x36 + x13 + x25 + x1 + x16 + x14 >= 1;
r324: x21 + x15 + x13 >= 1;
r325: x36 + x23 + x12 + x24 + x2 + x27 >= 1;
r326: x23 >= 1;
r327: x34 + x20 + x44 + x7 + x25 + x31 >= 1;
r328: x28 + x35 + x8 + x30 >= 1;
r329: x30 + x5 + x9 + x10 + x36 + x29 >= 1;
r330: x28 + x23 >= 1;
r331: x32 + x12 + x42 + x24 + x14 + x23 >= 1;
r332: x2 + x1 + x38 + x7 + x31 >= 1;
r333: x28 + x37 + x18 + x24 + x27 + x14 + x9 + x45 >= 1;
r334: x6 >= 1;
r335: x13 + x34 + x8 + x28 + x1 >= 1;
r336: x43 + x7 + x8 + x36 + x3 + x19 >= 1;
r337: x25 + x37 + x13 + x10 + x29 >= 1;
r338: x40 + x22 + x21 + x32 + x17 + x27 >= 1;
r339: x32 + x24 + x44 >= 1;
r340: x7 + x33 + x44 + x38 + x39 >= 1;
r341: x25 + x32 + x4 >= 1;
r342: x39 + x3 + x40 >= 1;
r343: x20 + x1 + x23 + x9 + x28 + x22 + x37 >= 1;
r344: x18 + x30 >= 1;
r345: x12 + x44 + x9 + x20 >= 1;
r346: x3 + x1 + x32 + x30 + x33 + x4 + x38 >= 1;
r347: x30 + x1 + x29 + x13 >= 1;
r348: x15 + x10 + x40 + x16 + x4 >= 1;
r349: x2 + x14 >= 1;
r350: x44 + x1 + x18 + x19 + x15 >= 1;
r351: x20 >= 1;
r352: x12 + x14 + x17 + x38 + x8 + x41 >= 1;
r353: x17 + x38 + x42 + x16 + x18 + x8 >= 1;
r354: x16 + x35 + x21 + x39 >= 1;
r355: x41 >= 1;
r356: x32 + x20 + x40 + x9 >= 1;
r357: x24 + x31 + x22 + x17 + x21 >= 1;
r358: x34 + x16 + x39 + x38 + x25 + x17 + x36 + x7 >= 1;
r359: x43 + x13 + x10 + x12 + x24 + x6 + x18 >= 1;
r360: x8 + x13 + x32 + x21 + x9 >= 1;
r361: x6 + x2 + x29 >= 1;
r362: x1 + x22 + x31 + x14 + x3 + x44 + x35 + x28 >= 1;
r363: x38 >= 1;
r364: x21 >= 1;
r365: x14 >= 1;
r366: x45 + x19 + x8 + x20 + x32 >= 1;
r367: x13 + x3 + x34 + x16 + x1 + x31 >= 1;
r368: x8 + x16 + x9 >= 1;
r369: x45 + x22 + x35 + x4 + x15 >= 1;
r370: x20 + x13 + x29 + x3 + x22 + x41 + x8 >= 1;
r371: x23 + x3 + x34 + x17 + x8 >= 1;
r372: x10 + x18 + x8 + x6 + x27 + x21 + x7 >= 1;
r373: x39 + x26 + x22 >= 1;
r374: x30 + x35 >= 1;
r375: x1 + x32 + x20 + x27 + x10 + x11 >= 1;
r376: x25 + x40 + x6 + x35 + x44 + x8 + x21 >= 1;
r377: x42 + x6 + x35 + x8 + x9 + x12 + x10 + x33 >= 1;
r378: x31 + x19 + x24 + x36 >= 1;
r379: x16 + x42 + x19 + x41 + x45 + x38 + x27 >= 1;
r380: x24 + x20 + x23 + x43 >= 1;
r381: x24 + x29 + x9 + x28 >= 1;
r382: x43 + x35 + x38 + x27 >= 1;
r383: x44 + x30 + x18 >= 1;
r384: x11 + x34 >= 1;
r385: x38 + x27 + x20 >= 1;
r386: x7 + x9 + x16 + x38 + x31 >= 1;
r387: x19 + x15 + x25 + x12 + x7 + x11 + x34 >= 1;
r388: x26 + x39 + x27 + x23 + x21 >= 1;
r389: x23 + x16 >= 1;
r390: x18 + x1 + x6 + x40 + x4 >= 1;
r391: x19 + x13 >= 1;
r392: x13 + x14 >= 1;
r393: x29 + x34 + x25 + x5 + x9 >= 1;
r394: x41 + x35 + x24 + x19 + x36 + x43 + x20 >= 1;
r395: x28 + x25 + x36 + x35 + x17 + x27 + x44 >= 1;
r396: x45 + x37 >= 1;
r397: x41 + x43 + x6 + x36 + x38 + x24 + x27 >= 1;
r398: x16 + x38 + x22 + x39 + x45 + x19 + x26 + x20 >= 1;
r399: x35 + x40 + x29 + x32 + x2 + x14 + x38 >= 1;
r400: x22 >= 1;

bin x1, x2, x3, x4, x5, x6, x7, x8, x9, x10, x11, x12, x13, x14, x15, x16, x17, x18, x19, x20, x21, x22, x23, x24, x25, x26, x27, x28, x29, x30, x31, x32, x33, x34, x35, x36, x37, x38, x39, x40, x41, x42, x43, x44, x45;
